50	100	100	100
2	9	2
4	6	7
1	9	3
5	3	3
4	4	7
3	2	6
7	6	6
7	6	3
6	4	3
4	6	9
9	2	4
1	9	1
4	9	6
2	2	1
4	9	6
9	2	3
2	7	2
1	2	7
3	7	3
3	7	3
9	2	6
7	3	3
2	5	4
7	5	6
8	7	9
3	6	4
4	5	9
4	3	7
2	5	1
3	9	7
4	1	2
8	3	8
1	4	3
9	2	6
2	3	7
9	3	1
6	5	4
6	2	8
9	5	9
7	2	2
8	3	6
2	6	1
9	8	2
9	9	5
4	2	6
1	7	3
9	5	3
2	4	5
9	2	3
9	8	8
